100 4950
1 2 1
1 3 3
1 4 5
1 5 2
1 6 5
1 7 3
1 8 5
1 9 5
1 10 2
1 11 3
1 12 5
1 13 3
1 14 1
1 15 2
1 16 5
1 17 2
1 18 1
1 19 1
1 20 2
1 21 4
1 22 4
1 23 1
1 24 1
1 25 2
1 26 1
1 27 4
1 28 2
1 29 2
1 30 1
1 31 2
1 32 4
1 33 5
1 34 3
1 35 3
1 36 5
1 37 5
1 38 5
1 39 1
1 40 1
1 41 2
1 42 1
1 43 2
1 44 5
1 45 5
1 46 3
1 47 5
1 48 3
1 49 4
1 50 2
1 51 4
1 52 5
1 53 3
1 54 2
1 55 2
1 56 2
1 57 3
1 58 4
1 59 2
1 60 3
1 61 4
1 62 4
1 63 2
1 64 4
1 65 5
1 66 1
1 67 1
1 68 1
1 69 2
1 70 3
1 71 2
1 72 2
1 73 1
1 74 2
1 75 3
1 76 2
1 77 4
1 78 3
1 79 2
1 80 4
1 81 2
1 82 5
1 83 2
1 84 1
1 85 4
1 86 4
1 87 5
1 88 5
1 89 3
1 90 2
1 91 2
1 92 3
1 93 4
1 94 3
1 95 3
1 96 4
1 97 3
1 98 5
1 99 3
1 100 5
2 3 4
2 4 5
2 5 1
2 6 2
2 7 2
2 8 1
2 9 4
2 10 2
2 11 3
2 12 3
2 13 4
2 14 2
2 15 3
2 16 5
2 17 3
2 18 2
2 19 5
2 20 2
2 21 1
2 22 3
2 23 1
2 24 2
2 25 4
2 26 4
2 27 3
2 28 4
2 29 4
2 30 4
2 31 1
2 32 5
2 33 1
2 34 4
2 35 3
2 36 2
2 37 2
2 38 2
2 39 1
2 40 4
2 41 1
2 42 3
2 43 4
2 44 5
2 45 5
2 46 1
2 47 4
2 48 2
2 49 3
2 50 5
2 51 3
2 52 3
2 53 5
2 54 4
2 55 5
2 56 1
2 57 4
2 58 1
2 59 3
2 60 2
2 61 1
2 62 3
2 63 4
2 64 4
2 65 3
2 66 4
2 67 3
2 68 4
2 69 1
2 70 1
2 71 3
2 72 1
2 73 3
2 74 1
2 75 2
2 76 1
2 77 2
2 78 5
2 79 3
2 80 4
2 81 3
2 82 1
2 83 1
2 84 4
2 85 3
2 86 4
2 87 5
2 88 4
2 89 3
2 90 3
2 91 4
2 92 2
2 93 2
2 94 2
2 95 2
2 96 3
2 97 5
2 98 3
2 99 3
2 100 1
3 4 1
3 5 5
3 6 1
3 7 4
3 8 5
3 9 4
3 10 5
3 11 5
3 12 4
3 13 4
3 14 1
3 15 1
3 16 5
3 17 3
3 18 2
3 19 3
3 20 1
3 21 2
3 22 5
3 23 2
3 24 4
3 25 4
3 26 2
3 27 3
3 28 5
3 29 4
3 30 4
3 31 3
3 32 5
3 33 4
3 34 2
3 35 5
3 36 3
3 37 1
3 38 1
3 39 4
3 40 3
3 41 5
3 42 4
3 43 1
3 44 1
3 45 4
3 46 5
3 47 3
3 48 3
3 49 4
3 50 3
3 51 2
3 52 3
3 53 1
3 54 2
3 55 1
3 56 4
3 57 2
3 58 5
3 59 1
3 60 2
3 61 1
3 62 4
3 63 4
3 64 4
3 65 4
3 66 3
3 67 5
3 68 1
3 69 5
3 70 3
3 71 3
3 72 3
3 73 1
3 74 1
3 75 2
3 76 4
3 77 3
3 78 2
3 79 4
3 80 5
3 81 5
3 82 3
3 83 5
3 84 1
3 85 3
3 86 3
3 87 3
3 88 3
3 89 4
3 90 5
3 91 1
3 92 3
3 93 4
3 94 2
3 95 2
3 96 3
3 97 4
3 98 2
3 99 3
3 100 2
4 5 5
4 6 3
4 7 4
4 8 3
4 9 3
4 10 5
4 11 5
4 12 2
4 13 4
4 14 5
4 15 5
4 16 5
4 17 1
4 18 3
4 19 2
4 20 4
4 21 1
4 22 4
4 23 5
4 24 1
4 25 5
4 26 3
4 27 3
4 28 1
4 29 4
4 30 2
4 31 5
4 32 5
4 33 1
4 34 5
4 35 5
4 36 3
4 37 3
4 38 5
4 39 3
4 40 4
4 41 5
4 42 1
4 43 5
4 44 5
4 45 2
4 46 5
4 47 1
4 48 1
4 49 1
4 50 5
4 51 3
4 52 5
4 53 5
4 54 1
4 55 3
4 56 1
4 57 2
4 58 5
4 59 3
4 60 1
4 61 1
4 62 3
4 63 3
4 64 5
4 65 3
4 66 2
4 67 2
4 68 4
4 69 2
4 70 1
4 71 5
4 72 2
4 73 3
4 74 2
4 75 4
4 76 1
4 77 3
4 78 5
4 79 4
4 80 5
4 81 5
4 82 1
4 83 5
4 84 2
4 85 1
4 86 1
4 87 5
4 88 1
4 89 4
4 90 4
4 91 5
4 92 4
4 93 2
4 94 5
4 95 3
4 96 5
4 97 1
4 98 5
4 99 4
4 100 3
5 6 4
5 7 2
5 8 3
5 9 3
5 10 4
5 11 2
5 12 1
5 13 4
5 14 4
5 15 4
5 16 1
5 17 5
5 18 1
5 19 4
5 20 5
5 21 1
5 22 3
5 23 4
5 24 5
5 25 4
5 26 4
5 27 3
5 28 4
5 29 5
5 30 1
5 31 3
5 32 3
5 33 4
5 34 5
5 35 3
5 36 5
5 37 1
5 38 5
5 39 1
5 40 3
5 41 1
5 42 5
5 43 4
5 44 4
5 45 5
5 46 4
5 47 3
5 48 1
5 49 1
5 50 4
5 51 1
5 52 5
5 53 1
5 54 4
5 55 2
5 56 1
5 57 3
5 58 2
5 59 4
5 60 3
5 61 1
5 62 3
5 63 1
5 64 5
5 65 3
5 66 2
5 67 3
5 68 5
5 69 1
5 70 3
5 71 5
5 72 3
5 73 5
5 74 1
5 75 1
5 76 4
5 77 5
5 78 5
5 79 1
5 80 5
5 81 2
5 82 3
5 83 5
5 84 4
5 85 4
5 86 3
5 87 3
5 88 1
5 89 3
5 90 1
5 91 2
5 92 1
5 93 5
5 94 1
5 95 2
5 96 4
5 97 2
5 98 2
5 99 3
5 100 3
6 7 1
6 8 1
6 9 2
6 10 5
6 11 3
6 12 5
6 13 4
6 14 1
6 15 2
6 16 2
6 17 2
6 18 3
6 19 1
6 20 5
6 21 5
6 22 4
6 23 2
6 24 4
6 25 3
6 26 4
6 27 2
6 28 3
6 29 2
6 30 5
6 31 5
6 32 3
6 33 5
6 34 3
6 35 3
6 36 3
6 37 5
6 38 5
6 39 1
6 40 2
6 41 5
6 42 3
6 43 3
6 44 3
6 45 5
6 46 4
6 47 1
6 48 4
6 49 3
6 50 5
6 51 5
6 52 3
6 53 1
6 54 2
6 55 5
6 56 2
6 57 3
6 58 1
6 59 4
6 60 2
6 61 3
6 62 3
6 63 2
6 64 2
6 65 4
6 66 4
6 67 3
6 68 4
6 69 5
6 70 4
6 71 1
6 72 4
6 73 3
6 74 3
6 75 3
6 76 4
6 77 1
6 78 2
6 79 5
6 80 1
6 81 4
6 82 1
6 83 1
6 84 5
6 85 2
6 86 4
6 87 1
6 88 5
6 89 3
6 90 5
6 91 4
6 92 1
6 93 2
6 94 3
6 95 2
6 96 5
6 97 4
6 98 3
6 99 1
6 100 1
7 8 1
7 9 4
7 10 5
7 11 3
7 12 5
7 13 3
7 14 5
7 15 2
7 16 1
7 17 3
7 18 3
7 19 4
7 20 5
7 21 2
7 22 2
7 23 3
7 24 5
7 25 2
7 26 1
7 27 2
7 28 3
7 29 5
7 30 2
7 31 2
7 32 5
7 33 2
7 34 2
7 35 3
7 36 3
7 37 5
7 38 5
7 39 5
7 40 3
7 41 4
7 42 2
7 43 5
7 44 2
7 45 4
7 46 2
7 47 3
7 48 5
7 49 1
7 50 3
7 51 1
7 52 2
7 53 2
7 54 4
7 55 4
7 56 3
7 57 5
7 58 3
7 59 2
7 60 4
7 61 5
7 62 1
7 63 3
7 64 3
7 65 4
7 66 3
7 67 2
7 68 5
7 69 1
7 70 4
7 71 4
7 72 2
7 73 1
7 74 2
7 75 2
7 76 4
7 77 2
7 78 2
7 79 4
7 80 1
7 81 5
7 82 2
7 83 1
7 84 1
7 85 3
7 86 2
7 87 1
7 88 4
7 89 4
7 90 1
7 91 4
7 92 3
7 93 5
7 94 4
7 95 2
7 96 2
7 97 2
7 98 2
7 99 5
7 100 5
8 9 5
8 10 2
8 11 1
8 12 5
8 13 2
8 14 5
8 15 3
8 16 4
8 17 5
8 18 2
8 19 3
8 20 4
8 21 3
8 22 2
8 23 2
8 24 5
8 25 5
8 26 3
8 27 3
8 28 5
8 29 4
8 30 5
8 31 4
8 32 2
8 33 5
8 34 2
8 35 5
8 36 3
8 37 3
8 38 3
8 39 3
8 40 1
8 41 3
8 42 3
8 43 2
8 44 3
8 45 2
8 46 3
8 47 2
8 48 5
8 49 5
8 50 1
8 51 1
8 52 5
8 53 1
8 54 2
8 55 1
8 56 2
8 57 1
8 58 3
8 59 2
8 60 4
8 61 4
8 62 3
8 63 4
8 64 2
8 65 1
8 66 2
8 67 1
8 68 5
8 69 4
8 70 3
8 71 5
8 72 4
8 73 3
8 74 4
8 75 2
8 76 4
8 77 3
8 78 3
8 79 4
8 80 3
8 81 3
8 82 4
8 83 5
8 84 2
8 85 4
8 86 3
8 87 3
8 88 5
8 89 1
8 90 3
8 91 1
8 92 3
8 93 2
8 94 1
8 95 2
8 96 2
8 97 1
8 98 5
8 99 4
8 100 5
9 10 4
9 11 1
9 12 1
9 13 1
9 14 1
9 15 3
9 16 5
9 17 3
9 18 3
9 19 4
9 20 4
9 21 3
9 22 3
9 23 5
9 24 3
9 25 2
9 26 4
9 27 5
9 28 4
9 29 1
9 30 3
9 31 4
9 32 2
9 33 1
9 34 1
9 35 2
9 36 1
9 37 3
9 38 2
9 39 2
9 40 4
9 41 5
9 42 4
9 43 3
9 44 5
9 45 1
9 46 1
9 47 5
9 48 3
9 49 4
9 50 5
9 51 2
9 52 2
9 53 2
9 54 4
9 55 5
9 56 5
9 57 2
9 58 3
9 59 2
9 60 4
9 61 3
9 62 4
9 63 1
9 64 4
9 65 2
9 66 3
9 67 3
9 68 4
9 69 4
9 70 1
9 71 5
9 72 2
9 73 4
9 74 2
9 75 4
9 76 5
9 77 4
9 78 3
9 79 3
9 80 1
9 81 3
9 82 4
9 83 3
9 84 2
9 85 5
9 86 4
9 87 2
9 88 1
9 89 2
9 90 1
9 91 1
9 92 1
9 93 3
9 94 5
9 95 4
9 96 1
9 97 4
9 98 3
9 99 3
9 100 2
10 11 1
10 12 2
10 13 3
10 14 2
10 15 1
10 16 2
10 17 2
10 18 2
10 19 2
10 20 2
10 21 2
10 22 3
10 23 2
10 24 3
10 25 1
10 26 3
10 27 5
10 28 4
10 29 3
10 30 4
10 31 2
10 32 1
10 33 5
10 34 3
10 35 2
10 36 1
10 37 4
10 38 1
10 39 3
10 40 4
10 41 4
10 42 3
10 43 4
10 44 2
10 45 3
10 46 2
10 47 2
10 48 5
10 49 4
10 50 1
10 51 5
10 52 2
10 53 2
10 54 4
10 55 5
10 56 2
10 57 5
10 58 1
10 59 2
10 60 5
10 61 4
10 62 3
10 63 2
10 64 3
10 65 1
10 66 3
10 67 1
10 68 2
10 69 1
10 70 5
10 71 2
10 72 1
10 73 4
10 74 4
10 75 5
10 76 4
10 77 3
10 78 3
10 79 3
10 80 4
10 81 2
10 82 1
10 83 2
10 84 4
10 85 3
10 86 3
10 87 2
10 88 3
10 89 4
10 90 3
10 91 3
10 92 4
10 93 2
10 94 5
10 95 5
10 96 4
10 97 4
10 98 2
10 99 5
10 100 2
11 12 5
11 13 5
11 14 4
11 15 5
11 16 2
11 17 1
11 18 5
11 19 1
11 20 3
11 21 3
11 22 2
11 23 2
11 24 2
11 25 1
11 26 2
11 27 5
11 28 1
11 29 2
11 30 5
11 31 4
11 32 3
11 33 5
11 34 4
11 35 3
11 36 4
11 37 4
11 38 1
11 39 1
11 40 3
11 41 3
11 42 1
11 43 2
11 44 2
11 45 1
11 46 3
11 47 1
11 48 2
11 49 2
11 50 3
11 51 5
11 52 4
11 53 5
11 54 2
11 55 3
11 56 3
11 57 5
11 58 5
11 59 3
11 60 1
11 61 4
11 62 4
11 63 5
11 64 1
11 65 4
11 66 1
11 67 1
11 68 2
11 69 5
11 70 4
11 71 1
11 72 3
11 73 3
11 74 2
11 75 5
11 76 3
11 77 1
11 78 4
11 79 4
11 80 2
11 81 2
11 82 1
11 83 4
11 84 5
11 85 5
11 86 5
11 87 5
11 88 5
11 89 3
11 90 1
11 91 5
11 92 2
11 93 3
11 94 4
11 95 5
11 96 4
11 97 3
11 98 5
11 99 1
11 100 3
12 13 4
12 14 5
12 15 5
12 16 3
12 17 3
12 18 1
12 19 3
12 20 5
12 21 4
12 22 3
12 23 1
12 24 3
12 25 3
12 26 5
12 27 4
12 28 4
12 29 4
12 30 2
12 31 2
12 32 1
12 33 5
12 34 1
12 35 5
12 36 3
12 37 3
12 38 1
12 39 4
12 40 2
12 41 4
12 42 5
12 43 5
12 44 1
12 45 2
12 46 1
12 47 4
12 48 5
12 49 4
12 50 2
12 51 3
12 52 2
12 53 1
12 54 3
12 55 5
12 56 5
12 57 4
12 58 2
12 59 3
12 60 3
12 61 1
12 62 4
12 63 3
12 64 3
12 65 1
12 66 1
12 67 5
12 68 1
12 69 4
12 70 1
12 71 5
12 72 2
12 73 3
12 74 3
12 75 5
12 76 5
12 77 4
12 78 5
12 79 3
12 80 2
12 81 3
12 82 2
12 83 4
12 84 2
12 85 3
12 86 3
12 87 1
12 88 1
12 89 2
12 90 4
12 91 4
12 92 1
12 93 4
12 94 1
12 95 2
12 96 4
12 97 5
12 98 3
12 99 1
12 100 3
13 14 5
13 15 2
13 16 3
13 17 4
13 18 2
13 19 4
13 20 1
13 21 5
13 22 1
13 23 5
13 24 3
13 25 4
13 26 1
13 27 3
13 28 1
13 29 2
13 30 3
13 31 1
13 32 4
13 33 2
13 34 1
13 35 5
13 36 3
13 37 1
13 38 5
13 39 3
13 40 5
13 41 2
13 42 1
13 43 5
13 44 4
13 45 3
13 46 2
13 47 2
13 48 5
13 49 2
13 50 3
13 51 4
13 52 1
13 53 3
13 54 4
13 55 2
13 56 5
13 57 4
13 58 3
13 59 3
13 60 2
13 61 1
13 62 3
13 63 3
13 64 3
13 65 3
13 66 3
13 67 4
13 68 1
13 69 3
13 70 5
13 71 3
13 72 3
13 73 5
13 74 5
13 75 1
13 76 5
13 77 3
13 78 3
13 79 5
13 80 2
13 81 1
13 82 4
13 83 2
13 84 2
13 85 5
13 86 3
13 87 5
13 88 2
13 89 4
13 90 1
13 91 5
13 92 1
13 93 2
13 94 3
13 95 5
13 96 4
13 97 1
13 98 3
13 99 1
13 100 1
14 15 1
14 16 1
14 17 5
14 18 3
14 19 1
14 20 1
14 21 4
14 22 5
14 23 1
14 24 3
14 25 4
14 26 5
14 27 1
14 28 3
14 29 1
14 30 5
14 31 3
14 32 3
14 33 3
14 34 4
14 35 4
14 36 1
14 37 5
14 38 3
14 39 1
14 40 1
14 41 2
14 42 5
14 43 1
14 44 2
14 45 1
14 46 5
14 47 5
14 48 4
14 49 5
14 50 4
14 51 4
14 52 3
14 53 4
14 54 1
14 55 2
14 56 4
14 57 1
14 58 5
14 59 3
14 60 5
14 61 3
14 62 1
14 63 1
14 64 2
14 65 1
14 66 2
14 67 1
14 68 3
14 69 2
14 70 1
14 71 3
14 72 3
14 73 5
14 74 1
14 75 4
14 76 4
14 77 3
14 78 3
14 79 3
14 80 2
14 81 5
14 82 2
14 83 2
14 84 4
14 85 2
14 86 3
14 87 2
14 88 1
14 89 4
14 90 2
14 91 3
14 92 5
14 93 3
14 94 4
14 95 4
14 96 2
14 97 3
14 98 4
14 99 3
14 100 5
15 16 5
15 17 2
15 18 2
15 19 2
15 20 1
15 21 4
15 22 5
15 23 1
15 24 3
15 25 4
15 26 2
15 27 3
15 28 1
15 29 3
15 30 1
15 31 1
15 32 1
15 33 3
15 34 1
15 35 2
15 36 5
15 37 2
15 38 5
15 39 5
15 40 1
15 41 2
15 42 4
15 43 2
15 44 1
15 45 4
15 46 5
15 47 5
15 48 2
15 49 3
15 50 3
15 51 5
15 52 5
15 53 1
15 54 1
15 55 1
15 56 4
15 57 1
15 58 5
15 59 5
15 60 4
15 61 3
15 62 2
15 63 1
15 64 4
15 65 4
15 66 5
15 67 4
15 68 2
15 69 4
15 70 5
15 71 2
15 72 5
15 73 3
15 74 4
15 75 1
15 76 4
15 77 4
15 78 3
15 79 3
15 80 3
15 81 2
15 82 2
15 83 2
15 84 3
15 85 5
15 86 5
15 87 2
15 88 3
15 89 1
15 90 2
15 91 2
15 92 5
15 93 2
15 94 1
15 95 2
15 96 4
15 97 3
15 98 4
15 99 3
15 100 4
16 17 2
16 18 1
16 19 4
16 20 1
16 21 3
16 22 3
16 23 3
16 24 3
16 25 3
16 26 1
16 27 3
16 28 1
16 29 3
16 30 3
16 31 4
16 32 5
16 33 5
16 34 4
16 35 1
16 36 5
16 37 1
16 38 1
16 39 1
16 40 2
16 41 5
16 42 1
16 43 5
16 44 1
16 45 4
16 46 1
16 47 1
16 48 3
16 49 5
16 50 4
16 51 5
16 52 3
16 53 1
16 54 2
16 55 4
16 56 5
16 57 2
16 58 5
16 59 2
16 60 2
16 61 5
16 62 5
16 63 5
16 64 2
16 65 3
16 66 1
16 67 5
16 68 1
16 69 2
16 70 1
16 71 4
16 72 4
16 73 3
16 74 2
16 75 1
16 76 4
16 77 4
16 78 1
16 79 2
16 80 5
16 81 4
16 82 4
16 83 2
16 84 1
16 85 1
16 86 2
16 87 5
16 88 4
16 89 1
16 90 1
16 91 4
16 92 4
16 93 2
16 94 3
16 95 1
16 96 1
16 97 1
16 98 1
16 99 1
16 100 2
17 18 1
17 19 3
17 20 3
17 21 5
17 22 1
17 23 3
17 24 5
17 25 2
17 26 3
17 27 3
17 28 3
17 29 1
17 30 3
17 31 1
17 32 1
17 33 1
17 34 3
17 35 2
17 36 5
17 37 3
17 38 3
17 39 2
17 40 5
17 41 3
17 42 5
17 43 5
17 44 2
17 45 5
17 46 5
17 47 4
17 48 2
17 49 3
17 50 4
17 51 3
17 52 5
17 53 2
17 54 3
17 55 4
17 56 2
17 57 5
17 58 5
17 59 4
17 60 5
17 61 3
17 62 3
17 63 2
17 64 5
17 65 1
17 66 5
17 67 2
17 68 2
17 69 4
17 70 4
17 71 3
17 72 1
17 73 5
17 74 2
17 75 5
17 76 2
17 77 5
17 78 3
17 79 5
17 80 4
17 81 2
17 82 1
17 83 4
17 84 4
17 85 1
17 86 5
17 87 5
17 88 3
17 89 4
17 90 5
17 91 1
17 92 1
17 93 3
17 94 4
17 95 1
17 96 1
17 97 1
17 98 1
17 99 4
17 100 1
18 19 5
18 20 2
18 21 4
18 22 4
18 23 1
18 24 3
18 25 3
18 26 1
18 27 4
18 28 4
18 29 3
18 30 5
18 31 4
18 32 3
18 33 3
18 34 3
18 35 1
18 36 5
18 37 3
18 38 4
18 39 3
18 40 4
18 41 1
18 42 5
18 43 4
18 44 3
18 45 1
18 46 4
18 47 4
18 48 5
18 49 2
18 50 1
18 51 4
18 52 2
18 53 1
18 54 2
18 55 2
18 56 3
18 57 5
18 58 3
18 59 1
18 60 2
18 61 1
18 62 3
18 63 3
18 64 4
18 65 2
18 66 5
18 67 3
18 68 5
18 69 1
18 70 3
18 71 3
18 72 2
18 73 4
18 74 3
18 75 5
18 76 4
18 77 5
18 78 5
18 79 1
18 80 3
18 81 3
18 82 1
18 83 5
18 84 3
18 85 2
18 86 3
18 87 4
18 88 5
18 89 4
18 90 4
18 91 4
18 92 4
18 93 4
18 94 3
18 95 5
18 96 2
18 97 1
18 98 5
18 99 1
18 100 2
19 20 2
19 21 1
19 22 2
19 23 3
19 24 2
19 25 4
19 26 5
19 27 4
19 28 2
19 29 1
19 30 5
19 31 1
19 32 5
19 33 3
19 34 1
19 35 4
19 36 1
19 37 5
19 38 3
19 39 2
19 40 3
19 41 4
19 42 2
19 43 4
19 44 2
19 45 3
19 46 1
19 47 5
19 48 5
19 49 1
19 50 1
19 51 5
19 52 4
19 53 2
19 54 4
19 55 2
19 56 4
19 57 4
19 58 3
19 59 3
19 60 1
19 61 4
19 62 2
19 63 3
19 64 2
19 65 2
19 66 2
19 67 3
19 68 2
19 69 2
19 70 1
19 71 1
19 72 5
19 73 1
19 74 2
19 75 4
19 76 1
19 77 5
19 78 2
19 79 4
19 80 2
19 81 3
19 82 3
19 83 5
19 84 2
19 85 5
19 86 1
19 87 3
19 88 2
19 89 1
19 90 2
19 91 2
19 92 3
19 93 2
19 94 4
19 95 2
19 96 5
19 97 1
19 98 5
19 99 3
19 100 5
20 21 2
20 22 3
20 23 5
20 24 5
20 25 2
20 26 2
20 27 2
20 28 1
20 29 3
20 30 5
20 31 5
20 32 2
20 33 3
20 34 1
20 35 1
20 36 4
20 37 5
20 38 4
20 39 3
20 40 4
20 41 4
20 42 4
20 43 1
20 44 1
20 45 5
20 46 3
20 47 1
20 48 5
20 49 1
20 50 5
20 51 1
20 52 5
20 53 5
20 54 2
20 55 4
20 56 5
20 57 3
20 58 1
20 59 4
20 60 3
20 61 2
20 62 4
20 63 3
20 64 2
20 65 5
20 66 2
20 67 2
20 68 3
20 69 4
20 70 4
20 71 1
20 72 5
20 73 3
20 74 5
20 75 3
20 76 5
20 77 2
20 78 5
20 79 3
20 80 4
20 81 3
20 82 4
20 83 4
20 84 1
20 85 4
20 86 4
20 87 1
20 88 5
20 89 2
20 90 5
20 91 3
20 92 4
20 93 1
20 94 4
20 95 1
20 96 5
20 97 5
20 98 5
20 99 3
20 100 4
21 22 1
21 23 4
21 24 5
21 25 5
21 26 5
21 27 3
21 28 4
21 29 5
21 30 5
21 31 5
21 32 2
21 33 2
21 34 4
21 35 3
21 36 2
21 37 5
21 38 5
21 39 2
21 40 5
21 41 2
21 42 3
21 43 3
21 44 4
21 45 2
21 46 5
21 47 3
21 48 2
21 49 2
21 50 3
21 51 3
21 52 1
21 53 3
21 54 4
21 55 4
21 56 1
21 57 5
21 58 1
21 59 5
21 60 3
21 61 4
21 62 3
21 63 1
21 64 3
21 65 2
21 66 4
21 67 2
21 68 5
21 69 1
21 70 5
21 71 2
21 72 2
21 73 3
21 74 4
21 75 2
21 76 5
21 77 4
21 78 3
21 79 5
21 80 1
21 81 4
21 82 3
21 83 4
21 84 3
21 85 5
21 86 5
21 87 5
21 88 2
21 89 5
21 90 1
21 91 3
21 92 5
21 93 2
21 94 2
21 95 4
21 96 1
21 97 4
21 98 3
21 99 2
21 100 5
22 23 5
22 24 1
22 25 2
22 26 1
22 27 2
22 28 1
22 29 3
22 30 1
22 31 4
22 32 3
22 33 5
22 34 2
22 35 4
22 36 5
22 37 3
22 38 3
22 39 4
22 40 3
22 41 4
22 42 5
22 43 3
22 44 2
22 45 1
22 46 5
22 47 1
22 48 1
22 49 4
22 50 5
22 51 3
22 52 4
22 53 5
22 54 5
22 55 2
22 56 4
22 57 5
22 58 4
22 59 5
22 60 2
22 61 1
22 62 2
22 63 1
22 64 4
22 65 1
22 66 1
22 67 3
22 68 2
22 69 1
22 70 3
22 71 2
22 72 5
22 73 4
22 74 1
22 75 4
22 76 5
22 77 5
22 78 5
22 79 2
22 80 2
22 81 5
22 82 2
22 83 4
22 84 5
22 85 3
22 86 2
22 87 3
22 88 5
22 89 5
22 90 5
22 91 2
22 92 2
22 93 1
22 94 4
22 95 3
22 96 5
22 97 5
22 98 3
22 99 4
22 100 1
23 24 3
23 25 4
23 26 3
23 27 1
23 28 4
23 29 3
23 30 4
23 31 5
23 32 5
23 33 1
23 34 1
23 35 4
23 36 5
23 37 4
23 38 1
23 39 2
23 40 1
23 41 5
23 42 2
23 43 2
23 44 3
23 45 2
23 46 5
23 47 2
23 48 5
23 49 5
23 50 5
23 51 3
23 52 1
23 53 1
23 54 5
23 55 4
23 56 2
23 57 3
23 58 4
23 59 1
23 60 3
23 61 1
23 62 1
23 63 2
23 64 3
23 65 3
23 66 4
23 67 3
23 68 1
23 69 4
23 70 2
23 71 5
23 72 5
23 73 2
23 74 5
23 75 3
23 76 2
23 77 4
23 78 5
23 79 5
23 80 2
23 81 4
23 82 3
23 83 1
23 84 4
23 85 4
23 86 5
23 87 2
23 88 3
23 89 5
23 90 4
23 91 2
23 92 3
23 93 5
23 94 4
23 95 4
23 96 4
23 97 3
23 98 5
23 99 3
23 100 3
24 25 1
24 26 1
24 27 2
24 28 2
24 29 1
24 30 1
24 31 5
24 32 1
24 33 5
24 34 5
24 35 3
24 36 3
24 37 2
24 38 4
24 39 3
24 40 5
24 41 4
24 42 4
24 43 5
24 44 1
24 45 3
24 46 4
24 47 2
24 48 2
24 49 1
24 50 4
24 51 4
24 52 5
24 53 4
24 54 4
24 55 2
24 56 1
24 57 4
24 58 3
24 59 5
24 60 2
24 61 1
24 62 3
24 63 3
24 64 1
24 65 1
24 66 3
24 67 2
24 68 1
24 69 1
24 70 5
24 71 4
24 72 2
24 73 1
24 74 4
24 75 3
24 76 3
24 77 3
24 78 5
24 79 4
24 80 5
24 81 4
24 82 3
24 83 4
24 84 2
24 85 1
24 86 5
24 87 4
24 88 3
24 89 5
24 90 4
24 91 2
24 92 3
24 93 1
24 94 4
24 95 3
24 96 5
24 97 1
24 98 1
24 99 3
24 100 2
25 26 4
25 27 3
25 28 4
25 29 1
25 30 2
25 31 4
25 32 4
25 33 5
25 34 3
25 35 3
25 36 5
25 37 5
25 38 5
25 39 5
25 40 4
25 41 2
25 42 4
25 43 2
25 44 2
25 45 2
25 46 5
25 47 1
25 48 3
25 49 5
25 50 3
25 51 5
25 52 2
25 53 4
25 54 3
25 55 1
25 56 3
25 57 3
25 58 4
25 59 2
25 60 3
25 61 2
25 62 4
25 63 4
25 64 1
25 65 3
25 66 3
25 67 4
25 68 1
25 69 5
25 70 3
25 71 4
25 72 1
25 73 1
25 74 1
25 75 5
25 76 5
25 77 2
25 78 1
25 79 1
25 80 3
25 81 4
25 82 4
25 83 1
25 84 4
25 85 2
25 86 5
25 87 2
25 88 2
25 89 2
25 90 4
25 91 4
25 92 5
25 93 3
25 94 3
25 95 2
25 96 3
25 97 5
25 98 4
25 99 5
25 100 4
26 27 5
26 28 2
26 29 2
26 30 5
26 31 2
26 32 3
26 33 4
26 34 1
26 35 3
26 36 3
26 37 1
26 38 5
26 39 3
26 40 2
26 41 2
26 42 4
26 43 5
26 44 4
26 45 5
26 46 3
26 47 5
26 48 5
26 49 1
26 50 2
26 51 4
26 52 5
26 53 3
26 54 4
26 55 1
26 56 3
26 57 2
26 58 2
26 59 4
26 60 3
26 61 5
26 62 1
26 63 3
26 64 1
26 65 5
26 66 1
26 67 5
26 68 5
26 69 4
26 70 1
26 71 4
26 72 4
26 73 3
26 74 5
26 75 5
26 76 5
26 77 3
26 78 4
26 79 3
26 80 5
26 81 2
26 82 4
26 83 5
26 84 4
26 85 4
26 86 3
26 87 2
26 88 1
26 89 5
26 90 5
26 91 2
26 92 1
26 93 4
26 94 1
26 95 4
26 96 5
26 97 1
26 98 3
26 99 2
26 100 3
27 28 1
27 29 3
27 30 2
27 31 1
27 32 1
27 33 5
27 34 3
27 35 3
27 36 3
27 37 1
27 38 2
27 39 4
27 40 2
27 41 1
27 42 3
27 43 5
27 44 3
27 45 2
27 46 1
27 47 1
27 48 4
27 49 1
27 50 1
27 51 4
27 52 3
27 53 4
27 54 1
27 55 4
27 56 1
27 57 3
27 58 4
27 59 1
27 60 4
27 61 1
27 62 5
27 63 1
27 64 1
27 65 3
27 66 1
27 67 3
27 68 4
27 69 5
27 70 5
27 71 5
27 72 1
27 73 4
27 74 4
27 75 1
27 76 2
27 77 4
27 78 1
27 79 4
27 80 5
27 81 4
27 82 4
27 83 5
27 84 5
27 85 4
27 86 5
27 87 2
27 88 1
27 89 1
27 90 5
27 91 1
27 92 4
27 93 5
27 94 1
27 95 2
27 96 1
27 97 5
27 98 4
27 99 2
27 100 4
28 29 5
28 30 2
28 31 2
28 32 5
28 33 4
28 34 5
28 35 2
28 36 5
28 37 5
28 38 2
28 39 1
28 40 1
28 41 2
28 42 2
28 43 5
28 44 3
28 45 1
28 46 2
28 47 5
28 48 5
28 49 4
28 50 2
28 51 4
28 52 2
28 53 2
28 54 4
28 55 2
28 56 4
28 57 4
28 58 5
28 59 5
28 60 5
28 61 2
28 62 1
28 63 3
28 64 1
28 65 4
28 66 1
28 67 2
28 68 1
28 69 2
28 70 2
28 71 4
28 72 4
28 73 3
28 74 1
28 75 2
28 76 5
28 77 2
28 78 1
28 79 3
28 80 2
28 81 3
28 82 3
28 83 4
28 84 2
28 85 5
28 86 3
28 87 4
28 88 1
28 89 5
28 90 1
28 91 5
28 92 4
28 93 5
28 94 5
28 95 1
28 96 4
28 97 1
28 98 3
28 99 4
28 100 4
29 30 1
29 31 1
29 32 1
29 33 1
29 34 3
29 35 2
29 36 2
29 37 2
29 38 2
29 39 3
29 40 2
29 41 3
29 42 3
29 43 2
29 44 5
29 45 1
29 46 2
29 47 4
29 48 5
29 49 4
29 50 5
29 51 2
29 52 4
29 53 2
29 54 4
29 55 2
29 56 4
29 57 3
29 58 1
29 59 2
29 60 4
29 61 3
29 62 5
29 63 2
29 64 1
29 65 4
29 66 5
29 67 4
29 68 5
29 69 3
29 70 1
29 71 5
29 72 1
29 73 4
29 74 2
29 75 3
29 76 4
29 77 2
29 78 4
29 79 4
29 80 1
29 81 3
29 82 1
29 83 4
29 84 5
29 85 2
29 86 1
29 87 4
29 88 1
29 89 1
29 90 3
29 91 3
29 92 4
29 93 1
29 94 1
29 95 3
29 96 5
29 97 3
29 98 2
29 99 5
29 100 1
30 31 4
30 32 2
30 33 1
30 34 4
30 35 2
30 36 4
30 37 5
30 38 5
30 39 5
30 40 2
30 41 1
30 42 3
30 43 2
30 44 1
30 45 3
30 46 1
30 47 5
30 48 4
30 49 1
30 50 2
30 51 2
30 52 1
30 53 5
30 54 5
30 55 2
30 56 4
30 57 1
30 58 5
30 59 2
30 60 1
30 61 3
30 62 4
30 63 4
30 64 5
30 65 3
30 66 1
30 67 4
30 68 2
30 69 5
30 70 1
30 71 3
30 72 4
30 73 3
30 74 4
30 75 5
30 76 4
30 77 1
30 78 2
30 79 1
30 80 5
30 81 2
30 82 2
30 83 3
30 84 2
30 85 2
30 86 4
30 87 3
30 88 5
30 89 3
30 90 4
30 91 5
30 92 2
30 93 1
30 94 1
30 95 5
30 96 3
30 97 3
30 98 2
30 99 5
30 100 4
31 32 3
31 33 2
31 34 3
31 35 5
31 36 4
31 37 2
31 38 5
31 39 4
31 40 4
31 41 2
31 42 1
31 43 5
31 44 5
31 45 2
31 46 2
31 47 3
31 48 2
31 49 1
31 50 1
31 51 1
31 52 1
31 53 4
31 54 2
31 55 5
31 56 4
31 57 1
31 58 1
31 59 4
31 60 3
31 61 2
31 62 5
31 63 4
31 64 5
31 65 4
31 66 2
31 67 4
31 68 1
31 69 3
31 70 1
31 71 3
31 72 4
31 73 4
31 74 4
31 75 2
31 76 1
31 77 2
31 78 4
31 79 5
31 80 2
31 81 2
31 82 1
31 83 2
31 84 4
31 85 3
31 86 2
31 87 4
31 88 3
31 89 4
31 90 2
31 91 2
31 92 3
31 93 5
31 94 1
31 95 3
31 96 2
31 97 1
31 98 2
31 99 3
31 100 3
32 33 2
32 34 2
32 35 2
32 36 1
32 37 5
32 38 1
32 39 5
32 40 5
32 41 4
32 42 4
32 43 1
32 44 3
32 45 3
32 46 4
32 47 4
32 48 5
32 49 2
32 50 1
32 51 5
32 52 3
32 53 4
32 54 5
32 55 5
32 56 5
32 57 3
32 58 4
32 59 1
32 60 5
32 61 5
32 62 1
32 63 3
32 64 3
32 65 4
32 66 1
32 67 5
32 68 2
32 69 2
32 70 4
32 71 2
32 72 1
32 73 3
32 74 4
32 75 1
32 76 4
32 77 2
32 78 4
32 79 3
32 80 1
32 81 3
32 82 1
32 83 4
32 84 5
32 85 4
32 86 3
32 87 4
32 88 4
32 89 3
32 90 1
32 91 3
32 92 4
32 93 3
32 94 4
32 95 3
32 96 3
32 97 4
32 98 1
32 99 5
32 100 3
33 34 2
33 35 4
33 36 1
33 37 5
33 38 1
33 39 1
33 40 3
33 41 1
33 42 3
33 43 5
33 44 5
33 45 5
33 46 4
33 47 5
33 48 3
33 49 4
33 50 3
33 51 1
33 52 3
33 53 2
33 54 5
33 55 3
33 56 4
33 57 2
33 58 4
33 59 2
33 60 3
33 61 5
33 62 5
33 63 2
33 64 3
33 65 4
33 66 4
33 67 3
33 68 5
33 69 3
33 70 3
33 71 1
33 72 2
33 73 3
33 74 3
33 75 3
33 76 2
33 77 2
33 78 1
33 79 3
33 80 4
33 81 2
33 82 4
33 83 5
33 84 2
33 85 3
33 86 2
33 87 4
33 88 4
33 89 2
33 90 2
33 91 1
33 92 2
33 93 4
33 94 2
33 95 3
33 96 5
33 97 5
33 98 2
33 99 2
33 100 5
34 35 5
34 36 2
34 37 5
34 38 5
34 39 1
34 40 4
34 41 1
34 42 3
34 43 3
34 44 5
34 45 3
34 46 2
34 47 4
34 48 1
34 49 1
34 50 1
34 51 1
34 52 2
34 53 1
34 54 4
34 55 1
34 56 2
34 57 3
34 58 2
34 59 5
34 60 2
34 61 5
34 62 2
34 63 1
34 64 3
34 65 1
34 66 5
34 67 1
34 68 2
34 69 5
34 70 4
34 71 2
34 72 1
34 73 4
34 74 5
34 75 5
34 76 5
34 77 5
34 78 5
34 79 2
34 80 5
34 81 1
34 82 4
34 83 1
34 84 1
34 85 5
34 86 1
34 87 3
34 88 2
34 89 1
34 90 1
34 91 3
34 92 4
34 93 1
34 94 2
34 95 4
34 96 5
34 97 3
34 98 5
34 99 2
34 100 4
35 36 4
35 37 3
35 38 4
35 39 4
35 40 2
35 41 3
35 42 2
35 43 4
35 44 4
35 45 2
35 46 2
35 47 1
35 48 1
35 49 5
35 50 5
35 51 5
35 52 4
35 53 1
35 54 5
35 55 1
35 56 1
35 57 5
35 58 4
35 59 3
35 60 2
35 61 4
35 62 4
35 63 1
35 64 2
35 65 4
35 66 2
35 67 4
35 68 5
35 69 1
35 70 1
35 71 5
35 72 1
35 73 4
35 74 5
35 75 2
35 76 2
35 77 3
35 78 1
35 79 2
35 80 1
35 81 3
35 82 4
35 83 4
35 84 4
35 85 4
35 86 3
35 87 2
35 88 5
35 89 5
35 90 3
35 91 1
35 92 5
35 93 4
35 94 3
35 95 5
35 96 2
35 97 4
35 98 2
35 99 2
35 100 1
36 37 5
36 38 2
36 39 1
36 40 5
36 41 1
36 42 1
36 43 5
36 44 3
36 45 2
36 46 3
36 47 4
36 48 2
36 49 5
36 50 1
36 51 5
36 52 5
36 53 5
36 54 1
36 55 1
36 56 4
36 57 4
36 58 2
36 59 4
36 60 1
36 61 3
36 62 3
36 63 5
36 64 1
36 65 1
36 66 1
36 67 3
36 68 1
36 69 2
36 70 1
36 71 1
36 72 4
36 73 4
36 74 1
36 75 4
36 76 1
36 77 4
36 78 2
36 79 1
36 80 1
36 81 5
36 82 5
36 83 4
36 84 3
36 85 4
36 86 2
36 87 1
36 88 3
36 89 5
36 90 2
36 91 5
36 92 3
36 93 5
36 94 1
36 95 1
36 96 3
36 97 3
36 98 4
36 99 3
36 100 1
37 38 5
37 39 4
37 40 3
37 41 3
37 42 3
37 43 1
37 44 4
37 45 5
37 46 3
37 47 2
37 48 3
37 49 4
37 50 2
37 51 4
37 52 5
37 53 4
37 54 1
37 55 1
37 56 2
37 57 2
37 58 2
37 59 2
37 60 2
37 61 2
37 62 5
37 63 1
37 64 3
37 65 1
37 66 3
37 67 5
37 68 3
37 69 4
37 70 2
37 71 3
37 72 5
37 73 5
37 74 4
37 75 5
37 76 4
37 77 1
37 78 4
37 79 3
37 80 2
37 81 3
37 82 5
37 83 1
37 84 2
37 85 5
37 86 1
37 87 5
37 88 5
37 89 5
37 90 1
37 91 4
37 92 5
37 93 4
37 94 5
37 95 5
37 96 5
37 97 3
37 98 5
37 99 1
37 100 2
38 39 5
38 40 5
38 41 4
38 42 2
38 43 4
38 44 5
38 45 2
38 46 5
38 47 5
38 48 3
38 49 2
38 50 2
38 51 2
38 52 2
38 53 4
38 54 2
38 55 4
38 56 2
38 57 2
38 58 4
38 59 1
38 60 1
38 61 3
38 62 5
38 63 2
38 64 5
38 65 3
38 66 2
38 67 2
38 68 2
38 69 4
38 70 5
38 71 1
38 72 3
38 73 3
38 74 1
38 75 2
38 76 2
38 77 4
38 78 4
38 79 1
38 80 5
38 81 4
38 82 1
38 83 2
38 84 3
38 85 1
38 86 1
38 87 5
38 88 4
38 89 1
38 90 1
38 91 5
38 92 5
38 93 2
38 94 4
38 95 4
38 96 4
38 97 4
38 98 2
38 99 3
38 100 1
39 40 5
39 41 1
39 42 1
39 43 4
39 44 5
39 45 5
39 46 3
39 47 3
39 48 5
39 49 1
39 50 3
39 51 1
39 52 5
39 53 1
39 54 2
39 55 1
39 56 3
39 57 2
39 58 1
39 59 3
39 60 4
39 61 3
39 62 3
39 63 2
39 64 4
39 65 3
39 66 5
39 67 3
39 68 1
39 69 3
39 70 2
39 71 4
39 72 4
39 73 4
39 74 4
39 75 1
39 76 2
39 77 5
39 78 5
39 79 5
39 80 2
39 81 5
39 82 3
39 83 4
39 84 4
39 85 1
39 86 4
39 87 1
39 88 3
39 89 2
39 90 4
39 91 3
39 92 5
39 93 1
39 94 2
39 95 3
39 96 2
39 97 4
39 98 4
39 99 1
39 100 3
40 41 3
40 42 1
40 43 4
40 44 5
40 45 3
40 46 5
40 47 1
40 48 2
40 49 5
40 50 5
40 51 1
40 52 2
40 53 2
40 54 1
40 55 3
40 56 5
40 57 4
40 58 4
40 59 4
40 60 5
40 61 4
40 62 3
40 63 1
40 64 2
40 65 3
40 66 4
40 67 4
40 68 4
40 69 3
40 70 1
40 71 2
40 72 1
40 73 2
40 74 1
40 75 2
40 76 2
40 77 4
40 78 1
40 79 4
40 80 2
40 81 2
40 82 5
40 83 4
40 84 5
40 85 4
40 86 5
40 87 3
40 88 4
40 89 3
40 90 5
40 91 5
40 92 3
40 93 3
40 94 2
40 95 1
40 96 1
40 97 1
40 98 3
40 99 2
40 100 3
41 42 1
41 43 3
41 44 4
41 45 3
41 46 3
41 47 2
41 48 1
41 49 2
41 50 2
41 51 4
41 52 4
41 53 2
41 54 5
41 55 1
41 56 1
41 57 4
41 58 3
41 59 4
41 60 1
41 61 4
41 62 3
41 63 1
41 64 3
41 65 2
41 66 1
41 67 4
41 68 2
41 69 2
41 70 1
41 71 4
41 72 1
41 73 2
41 74 1
41 75 1
41 76 4
41 77 5
41 78 2
41 79 5
41 80 2
41 81 4
41 82 2
41 83 4
41 84 5
41 85 2
41 86 4
41 87 1
41 88 4
41 89 1
41 90 2
41 91 2
41 92 2
41 93 1
41 94 2
41 95 2
41 96 4
41 97 1
41 98 3
41 99 5
41 100 5
42 43 1
42 44 4
42 45 1
42 46 2
42 47 5
42 48 3
42 49 1
42 50 4
42 51 5
42 52 3
42 53 2
42 54 2
42 55 3
42 56 1
42 57 3
42 58 2
42 59 1
42 60 5
42 61 3
42 62 3
42 63 5
42 64 1
42 65 4
42 66 3
42 67 1
42 68 3
42 69 1
42 70 4
42 71 4
42 72 1
42 73 2
42 74 3
42 75 2
42 76 4
42 77 1
42 78 2
42 79 5
42 80 1
42 81 2
42 82 4
42 83 5
42 84 3
42 85 4
42 86 3
42 87 3
42 88 2
42 89 3
42 90 4
42 91 5
42 92 5
42 93 4
42 94 3
42 95 2
42 96 4
42 97 4
42 98 2
42 99 3
42 100 1
43 44 3
43 45 3
43 46 5
43 47 3
43 48 3
43 49 5
43 50 3
43 51 4
43 52 2
43 53 5
43 54 3
43 55 5
43 56 3
43 57 5
43 58 5
43 59 4
43 60 3
43 61 3
43 62 5
43 63 5
43 64 2
43 65 5
43 66 2
43 67 3
43 68 1
43 69 1
43 70 3
43 71 3
43 72 5
43 73 4
43 74 1
43 75 4
43 76 4
43 77 3
43 78 5
43 79 2
43 80 4
43 81 2
43 82 5
43 83 1
43 84 3
43 85 3
43 86 4
43 87 3
43 88 5
43 89 4
43 90 5
43 91 4
43 92 5
43 93 3
43 94 1
43 95 1
43 96 2
43 97 3
43 98 1
43 99 3
43 100 2
44 45 3
44 46 3
44 47 1
44 48 4
44 49 3
44 50 1
44 51 4
44 52 4
44 53 4
44 54 4
44 55 4
44 56 4
44 57 5
44 58 3
44 59 4
44 60 1
44 61 1
44 62 2
44 63 1
44 64 2
44 65 4
44 66 1
44 67 3
44 68 4
44 69 3
44 70 4
44 71 1
44 72 4
44 73 3
44 74 5
44 75 2
44 76 2
44 77 5
44 78 3
44 79 5
44 80 2
44 81 3
44 82 5
44 83 3
44 84 5
44 85 3
44 86 3
44 87 4
44 88 3
44 89 3
44 90 5
44 91 2
44 92 5
44 93 2
44 94 1
44 95 1
44 96 1
44 97 5
44 98 4
44 99 3
44 100 4
45 46 5
45 47 4
45 48 4
45 49 4
45 50 2
45 51 4
45 52 3
45 53 1
45 54 4
45 55 2
45 56 5
45 57 5
45 58 4
45 59 4
45 60 2
45 61 3
45 62 5
45 63 5
45 64 4
45 65 2
45 66 1
45 67 3
45 68 2
45 69 3
45 70 5
45 71 2
45 72 5
45 73 5
45 74 4
45 75 5
45 76 5
45 77 1
45 78 1
45 79 2
45 80 3
45 81 1
45 82 2
45 83 5
45 84 1
45 85 1
45 86 5
45 87 5
45 88 4
45 89 1
45 90 4
45 91 4
45 92 4
45 93 2
45 94 2
45 95 2
45 96 4
45 97 5
45 98 4
45 99 2
45 100 1
46 47 4
46 48 4
46 49 2
46 50 5
46 51 3
46 52 5
46 53 4
46 54 4
46 55 4
46 56 5
46 57 5
46 58 4
46 59 2
46 60 5
46 61 3
46 62 5
46 63 3
46 64 5
46 65 3
46 66 3
46 67 3
46 68 1
46 69 1
46 70 3
46 71 2
46 72 1
46 73 2
46 74 1
46 75 4
46 76 4
46 77 5
46 78 1
46 79 4
46 80 5
46 81 1
46 82 4
46 83 4
46 84 4
46 85 1
46 86 2
46 87 5
46 88 2
46 89 2
46 90 1
46 91 3
46 92 3
46 93 1
46 94 1
46 95 2
46 96 5
46 97 1
46 98 3
46 99 2
46 100 4
47 48 1
47 49 2
47 50 5
47 51 5
47 52 5
47 53 1
47 54 1
47 55 4
47 56 5
47 57 4
47 58 2
47 59 5
47 60 4
47 61 2
47 62 5
47 63 3
47 64 5
47 65 4
47 66 5
47 67 2
47 68 2
47 69 2
47 70 1
47 71 3
47 72 2
47 73 1
47 74 1
47 75 1
47 76 4
47 77 5
47 78 2
47 79 4
47 80 3
47 81 3
47 82 1
47 83 4
47 84 2
47 85 3
47 86 4
47 87 3
47 88 5
47 89 4
47 90 3
47 91 1
47 92 1
47 93 1
47 94 4
47 95 4
47 96 4
47 97 1
47 98 3
47 99 5
47 100 3
48 49 3
48 50 3
48 51 1
48 52 1
48 53 2
48 54 4
48 55 4
48 56 4
48 57 5
48 58 1
48 59 1
48 60 3
48 61 3
48 62 1
48 63 3
48 64 2
48 65 3
48 66 5
48 67 5
48 68 2
48 69 4
48 70 2
48 71 4
48 72 4
48 73 3
48 74 2
48 75 2
48 76 1
48 77 4
48 78 3
48 79 3
48 80 3
48 81 4
48 82 5
48 83 1
48 84 2
48 85 2
48 86 4
48 87 3
48 88 4
48 89 3
48 90 2
48 91 4
48 92 4
48 93 2
48 94 4
48 95 1
48 96 1
48 97 5
48 98 4
48 99 4
48 100 5
49 50 4
49 51 5
49 52 1
49 53 4
49 54 2
49 55 2
49 56 5
49 57 4
49 58 1
49 59 2
49 60 3
49 61 5
49 62 1
49 63 5
49 64 4
49 65 4
49 66 5
49 67 5
49 68 4
49 69 1
49 70 2
49 71 1
49 72 4
49 73 2
49 74 1
49 75 5
49 76 4
49 77 1
49 78 2
49 79 3
49 80 5
49 81 1
49 82 2
49 83 5
49 84 2
49 85 4
49 86 5
49 87 2
49 88 3
49 89 1
49 90 5
49 91 3
49 92 5
49 93 3
49 94 5
49 95 3
49 96 2
49 97 4
49 98 4
49 99 3
49 100 2
50 51 5
50 52 4
50 53 4
50 54 3
50 55 4
50 56 1
50 57 5
50 58 3
50 59 2
50 60 4
50 61 1
50 62 4
50 63 2
50 64 3
50 65 4
50 66 1
50 67 3
50 68 2
50 69 2
50 70 5
50 71 2
50 72 2
50 73 1
50 74 1
50 75 2
50 76 2
50 77 2
50 78 2
50 79 4
50 80 5
50 81 5
50 82 5
50 83 2
50 84 1
50 85 4
50 86 3
50 87 1
50 88 2
50 89 3
50 90 5
50 91 1
50 92 2
50 93 3
50 94 4
50 95 5
50 96 3
50 97 2
50 98 5
50 99 1
50 100 5
51 52 2
51 53 1
51 54 2
51 55 5
51 56 5
51 57 4
51 58 1
51 59 2
51 60 4
51 61 3
51 62 1
51 63 3
51 64 3
51 65 3
51 66 5
51 67 1
51 68 3
51 69 3
51 70 3
51 71 3
51 72 1
51 73 1
51 74 5
51 75 3
51 76 3
51 77 5
51 78 2
51 79 1
51 80 2
51 81 3
51 82 2
51 83 2
51 84 4
51 85 3
51 86 4
51 87 4
51 88 1
51 89 2
51 90 2
51 91 3
51 92 2
51 93 4
51 94 3
51 95 3
51 96 3
51 97 5
51 98 1
51 99 4
51 100 1
52 53 1
52 54 5
52 55 1
52 56 4
52 57 2
52 58 2
52 59 5
52 60 3
52 61 2
52 62 3
52 63 4
52 64 5
52 65 2
52 66 2
52 67 2
52 68 3
52 69 4
52 70 1
52 71 1
52 72 1
52 73 5
52 74 4
52 75 1
52 76 1
52 77 3
52 78 2
52 79 4
52 80 5
52 81 2
52 82 1
52 83 3
52 84 3
52 85 4
52 86 4
52 87 3
52 88 4
52 89 4
52 90 3
52 91 1
52 92 5
52 93 1
52 94 5
52 95 4
52 96 1
52 97 3
52 98 3
52 99 2
52 100 2
53 54 3
53 55 2
53 56 5
53 57 3
53 58 3
53 59 2
53 60 2
53 61 1
53 62 5
53 63 5
53 64 5
53 65 5
53 66 5
53 67 2
53 68 5
53 69 5
53 70 2
53 71 4
53 72 1
53 73 3
53 74 4
53 75 4
53 76 3
53 77 5
53 78 3
53 79 5
53 80 4
53 81 4
53 82 4
53 83 3
53 84 4
53 85 2
53 86 1
53 87 4
53 88 1
53 89 3
53 90 5
53 91 2
53 92 3
53 93 5
53 94 2
53 95 1
53 96 1
53 97 4
53 98 2
53 99 4
53 100 1
54 55 4
54 56 4
54 57 3
54 58 4
54 59 4
54 60 4
54 61 4
54 62 2
54 63 2
54 64 5
54 65 3
54 66 1
54 67 2
54 68 4
54 69 5
54 70 3
54 71 5
54 72 1
54 73 2
54 74 1
54 75 4
54 76 3
54 77 4
54 78 3
54 79 4
54 80 1
54 81 1
54 82 5
54 83 3
54 84 4
54 85 2
54 86 5
54 87 4
54 88 3
54 89 5
54 90 5
54 91 1
54 92 4
54 93 1
54 94 1
54 95 4
54 96 3
54 97 2
54 98 1
54 99 3
54 100 4
55 56 2
55 57 2
55 58 4
55 59 5
55 60 1
55 61 5
55 62 2
55 63 2
55 64 3
55 65 1
55 66 2
55 67 1
55 68 2
55 69 2
55 70 3
55 71 4
55 72 5
55 73 5
55 74 3
55 75 1
55 76 1
55 77 3
55 78 2
55 79 5
55 80 4
55 81 4
55 82 5
55 83 4
55 84 3
55 85 4
55 86 1
55 87 5
55 88 5
55 89 4
55 90 3
55 91 1
55 92 5
55 93 3
55 94 4
55 95 2
55 96 1
55 97 4
55 98 4
55 99 3
55 100 5
56 57 5
56 58 3
56 59 2
56 60 3
56 61 1
56 62 5
56 63 3
56 64 4
56 65 2
56 66 2
56 67 1
56 68 1
56 69 5
56 70 1
56 71 1
56 72 1
56 73 2
56 74 3
56 75 5
56 76 4
56 77 2
56 78 3
56 79 5
56 80 3
56 81 3
56 82 2
56 83 4
56 84 3
56 85 5
56 86 5
56 87 2
56 88 3
56 89 4
56 90 2
56 91 3
56 92 2
56 93 4
56 94 3
56 95 5
56 96 3
56 97 1
56 98 3
56 99 2
56 100 2
57 58 4
57 59 2
57 60 1
57 61 1
57 62 3
57 63 3
57 64 1
57 65 4
57 66 3
57 67 4
57 68 5
57 69 3
57 70 1
57 71 4
57 72 3
57 73 3
57 74 4
57 75 3
57 76 5
57 77 5
57 78 4
57 79 1
57 80 2
57 81 3
57 82 3
57 83 4
57 84 4
57 85 3
57 86 4
57 87 4
57 88 3
57 89 4
57 90 4
57 91 1
57 92 3
57 93 2
57 94 5
57 95 1
57 96 3
57 97 1
57 98 3
57 99 4
57 100 2
58 59 1
58 60 2
58 61 1
58 62 4
58 63 4
58 64 3
58 65 3
58 66 2
58 67 2
58 68 2
58 69 4
58 70 2
58 71 4
58 72 4
58 73 2
58 74 2
58 75 4
58 76 4
58 77 4
58 78 4
58 79 2
58 80 4
58 81 1
58 82 2
58 83 2
58 84 5
58 85 4
58 86 4
58 87 3
58 88 2
58 89 1
58 90 3
58 91 2
58 92 5
58 93 4
58 94 4
58 95 2
58 96 1
58 97 5
58 98 3
58 99 1
58 100 4
59 60 4
59 61 5
59 62 4
59 63 4
59 64 1
59 65 3
59 66 3
59 67 4
59 68 2
59 69 4
59 70 1
59 71 3
59 72 4
59 73 1
59 74 5
59 75 4
59 76 1
59 77 4
59 78 1
59 79 5
59 80 1
59 81 2
59 82 2
59 83 5
59 84 5
59 85 4
59 86 5
59 87 5
59 88 2
59 89 2
59 90 5
59 91 5
59 92 4
59 93 5
59 94 3
59 95 3
59 96 2
59 97 3
59 98 3
59 99 2
59 100 3
60 61 4
60 62 5
60 63 3
60 64 3
60 65 2
60 66 1
60 67 5
60 68 3
60 69 2
60 70 5
60 71 3
60 72 5
60 73 5
60 74 2
60 75 4
60 76 2
60 77 3
60 78 1
60 79 1
60 80 5
60 81 5
60 82 4
60 83 5
60 84 2
60 85 3
60 86 4
60 87 5
60 88 3
60 89 5
60 90 4
60 91 5
60 92 3
60 93 5
60 94 1
60 95 1
60 96 5
60 97 3
60 98 4
60 99 4
60 100 5
61 62 4
61 63 5
61 64 3
61 65 4
61 66 2
61 67 1
61 68 2
61 69 3
61 70 4
61 71 4
61 72 5
61 73 4
61 74 5
61 75 3
61 76 2
61 77 5
61 78 5
61 79 2
61 80 5
61 81 5
61 82 2
61 83 5
61 84 5
61 85 3
61 86 5
61 87 3
61 88 2
61 89 5
61 90 1
61 91 3
61 92 1
61 93 2
61 94 2
61 95 1
61 96 4
61 97 5
61 98 3
61 99 3
61 100 5
62 63 3
62 64 2
62 65 4
62 66 2
62 67 1
62 68 4
62 69 2
62 70 5
62 71 4
62 72 4
62 73 3
62 74 1
62 75 3
62 76 2
62 77 4
62 78 2
62 79 1
62 80 1
62 81 2
62 82 2
62 83 4
62 84 4
62 85 3
62 86 5
62 87 4
62 88 4
62 89 3
62 90 2
62 91 5
62 92 5
62 93 4
62 94 4
62 95 2
62 96 4
62 97 2
62 98 1
62 99 3
62 100 5
63 64 3
63 65 4
63 66 3
63 67 3
63 68 2
63 69 1
63 70 3
63 71 1
63 72 4
63 73 2
63 74 1
63 75 2
63 76 4
63 77 2
63 78 3
63 79 3
63 80 4
63 81 4
63 82 3
63 83 3
63 84 4
63 85 3
63 86 3
63 87 5
63 88 5
63 89 3
63 90 2
63 91 2
63 92 2
63 93 4
63 94 4
63 95 5
63 96 2
63 97 4
63 98 3
63 99 1
63 100 1
64 65 2
64 66 1
64 67 5
64 68 3
64 69 3
64 70 5
64 71 2
64 72 2
64 73 4
64 74 5
64 75 5
64 76 3
64 77 2
64 78 4
64 79 5
64 80 4
64 81 4
64 82 4
64 83 2
64 84 5
64 85 5
64 86 3
64 87 4
64 88 3
64 89 4
64 90 3
64 91 1
64 92 5
64 93 2
64 94 4
64 95 3
64 96 5
64 97 1
64 98 5
64 99 3
64 100 4
65 66 1
65 67 4
65 68 3
65 69 4
65 70 3
65 71 3
65 72 4
65 73 2
65 74 3
65 75 3
65 76 4
65 77 1
65 78 3
65 79 1
65 80 4
65 81 3
65 82 5
65 83 3
65 84 2
65 85 1
65 86 3
65 87 3
65 88 1
65 89 1
65 90 5
65 91 5
65 92 2
65 93 1
65 94 4
65 95 5
65 96 2
65 97 3
65 98 5
65 99 2
65 100 2
66 67 5
66 68 2
66 69 4
66 70 2
66 71 4
66 72 1
66 73 4
66 74 4
66 75 5
66 76 3
66 77 3
66 78 1
66 79 2
66 80 1
66 81 4
66 82 4
66 83 1
66 84 5
66 85 4
66 86 3
66 87 2
66 88 5
66 89 5
66 90 4
66 91 4
66 92 3
66 93 3
66 94 5
66 95 4
66 96 2
66 97 4
66 98 3
66 99 1
66 100 1
67 68 3
67 69 3
67 70 4
67 71 2
67 72 1
67 73 1
67 74 4
67 75 5
67 76 2
67 77 2
67 78 2
67 79 1
67 80 3
67 81 2
67 82 3
67 83 3
67 84 4
67 85 4
67 86 4
67 87 4
67 88 3
67 89 3
67 90 1
67 91 5
67 92 5
67 93 2
67 94 4
67 95 4
67 96 3
67 97 1
67 98 3
67 99 3
67 100 5
68 69 3
68 70 5
68 71 1
68 72 1
68 73 1
68 74 2
68 75 4
68 76 3
68 77 3
68 78 2
68 79 4
68 80 5
68 81 1
68 82 3
68 83 3
68 84 5
68 85 3
68 86 3
68 87 2
68 88 1
68 89 4
68 90 3
68 91 4
68 92 5
68 93 1
68 94 3
68 95 1
68 96 4
68 97 2
68 98 4
68 99 1
68 100 4
69 70 5
69 71 4
69 72 2
69 73 4
69 74 4
69 75 1
69 76 5
69 77 5
69 78 3
69 79 1
69 80 4
69 81 2
69 82 2
69 83 3
69 84 1
69 85 4
69 86 5
69 87 2
69 88 5
69 89 3
69 90 2
69 91 4
69 92 5
69 93 4
69 94 2
69 95 2
69 96 1
69 97 1
69 98 2
69 99 4
69 100 4
70 71 5
70 72 2
70 73 1
70 74 5
70 75 5
70 76 4
70 77 1
70 78 3
70 79 2
70 80 1
70 81 1
70 82 3
70 83 4
70 84 1
70 85 4
70 86 5
70 87 5
70 88 4
70 89 3
70 90 4
70 91 4
70 92 1
70 93 1
70 94 1
70 95 4
70 96 3
70 97 5
70 98 5
70 99 2
70 100 5
71 72 4
71 73 1
71 74 5
71 75 1
71 76 1
71 77 1
71 78 4
71 79 1
71 80 4
71 81 4
71 82 5
71 83 4
71 84 3
71 85 1
71 86 3
71 87 3
71 88 4
71 89 2
71 90 5
71 91 3
71 92 3
71 93 5
71 94 5
71 95 3
71 96 3
71 97 3
71 98 5
71 99 4
71 100 4
72 73 3
72 74 1
72 75 5
72 76 2
72 77 5
72 78 4
72 79 5
72 80 3
72 81 5
72 82 3
72 83 3
72 84 1
72 85 4
72 86 2
72 87 2
72 88 1
72 89 1
72 90 2
72 91 2
72 92 2
72 93 3
72 94 3
72 95 2
72 96 5
72 97 2
72 98 4
72 99 4
72 100 2
73 74 4
73 75 4
73 76 5
73 77 3
73 78 1
73 79 3
73 80 4
73 81 1
73 82 4
73 83 3
73 84 2
73 85 2
73 86 4
73 87 5
73 88 5
73 89 5
73 90 2
73 91 3
73 92 2
73 93 3
73 94 2
73 95 3
73 96 5
73 97 1
73 98 1
73 99 4
73 100 5
74 75 4
74 76 4
74 77 1
74 78 4
74 79 1
74 80 5
74 81 2
74 82 3
74 83 4
74 84 4
74 85 3
74 86 5
74 87 5
74 88 1
74 89 5
74 90 1
74 91 1
74 92 1
74 93 3
74 94 2
74 95 4
74 96 2
74 97 5
74 98 4
74 99 2
74 100 5
75 76 3
75 77 3
75 78 1
75 79 5
75 80 2
75 81 5
75 82 5
75 83 1
75 84 4
75 85 4
75 86 1
75 87 1
75 88 1
75 89 3
75 90 5
75 91 3
75 92 4
75 93 3
75 94 3
75 95 3
75 96 1
75 97 3
75 98 3
75 99 5
75 100 2
76 77 1
76 78 2
76 79 4
76 80 3
76 81 2
76 82 1
76 83 3
76 84 1
76 85 1
76 86 2
76 87 3
76 88 4
76 89 1
76 90 4
76 91 1
76 92 1
76 93 2
76 94 5
76 95 4
76 96 1
76 97 3
76 98 4
76 99 2
76 100 2
77 78 4
77 79 2
77 80 1
77 81 2
77 82 3
77 83 1
77 84 5
77 85 4
77 86 5
77 87 3
77 88 1
77 89 5
77 90 1
77 91 3
77 92 1
77 93 1
77 94 2
77 95 3
77 96 1
77 97 3
77 98 4
77 99 3
77 100 1
78 79 3
78 80 5
78 81 3
78 82 2
78 83 1
78 84 4
78 85 4
78 86 5
78 87 3
78 88 4
78 89 4
78 90 4
78 91 4
78 92 2
78 93 1
78 94 1
78 95 5
78 96 5
78 97 1
78 98 1
78 99 1
78 100 2
79 80 4
79 81 1
79 82 1
79 83 2
79 84 4
79 85 2
79 86 4
79 87 5
79 88 1
79 89 4
79 90 2
79 91 1
79 92 3
79 93 3
79 94 1
79 95 5
79 96 3
79 97 5
79 98 4
79 99 4
79 100 1
80 81 4
80 82 1
80 83 2
80 84 2
80 85 2
80 86 1
80 87 2
80 88 5
80 89 3
80 90 3
80 91 4
80 92 3
80 93 1
80 94 3
80 95 5
80 96 4
80 97 1
80 98 2
80 99 2
80 100 2
81 82 4
81 83 2
81 84 4
81 85 2
81 86 3
81 87 1
81 88 1
81 89 4
81 90 3
81 91 3
81 92 1
81 93 4
81 94 1
81 95 4
81 96 1
81 97 3
81 98 2
81 99 4
81 100 3
82 83 3
82 84 1
82 85 3
82 86 3
82 87 1
82 88 4
82 89 1
82 90 1
82 91 1
82 92 2
82 93 5
82 94 1
82 95 1
82 96 4
82 97 3
82 98 1
82 99 1
82 100 4
83 84 4
83 85 5
83 86 3
83 87 4
83 88 5
83 89 4
83 90 4
83 91 5
83 92 4
83 93 1
83 94 1
83 95 3
83 96 2
83 97 3
83 98 2
83 99 4
83 100 3
84 85 4
84 86 5
84 87 3
84 88 1
84 89 2
84 90 4
84 91 4
84 92 1
84 93 1
84 94 2
84 95 1
84 96 5
84 97 4
84 98 1
84 99 4
84 100 5
85 86 1
85 87 4
85 88 5
85 89 2
85 90 2
85 91 5
85 92 4
85 93 3
85 94 2
85 95 2
85 96 2
85 97 3
85 98 1
85 99 2
85 100 4
86 87 3
86 88 1
86 89 2
86 90 4
86 91 5
86 92 2
86 93 2
86 94 5
86 95 4
86 96 3
86 97 5
86 98 5
86 99 1
86 100 3
87 88 3
87 89 1
87 90 3
87 91 1
87 92 2
87 93 5
87 94 4
87 95 5
87 96 4
87 97 2
87 98 4
87 99 5
87 100 1
88 89 5
88 90 4
88 91 5
88 92 5
88 93 3
88 94 2
88 95 5
88 96 4
88 97 5
88 98 2
88 99 3
88 100 5
89 90 1
89 91 5
89 92 2
89 93 5
89 94 1
89 95 3
89 96 5
89 97 3
89 98 1
89 99 1
89 100 4
90 91 1
90 92 2
90 93 4
90 94 2
90 95 5
90 96 1
90 97 1
90 98 5
90 99 2
90 100 5
91 92 4
91 93 5
91 94 5
91 95 3
91 96 5
91 97 2
91 98 1
91 99 4
91 100 4
92 93 1
92 94 3
92 95 3
92 96 1
92 97 1
92 98 3
92 99 4
92 100 4
93 94 3
93 95 3
93 96 2
93 97 1
93 98 1
93 99 3
93 100 5
94 95 3
94 96 1
94 97 1
94 98 5
94 99 4
94 100 3
95 96 4
95 97 4
95 98 5
95 99 4
95 100 2
96 97 4
96 98 3
96 99 1
96 100 5
97 98 3
97 99 4
97 100 3
98 99 4
98 100 3
99 100 5
